14° run output:
{
    "Function": "kroA1000.tsp",
    "Problem dimension": [
        33,
        545,
        66,
        492,
        98,
        790,
        592,
        896,
        367,
        575,
        727,
        612,
        350,
        182,
        78,
        206,
        0,
        927,
        56,
        36,
        19,
        577,
        845,
        551,
        565,
        71,
        461,
        83,
        303,
        681,
        908,
        576,
        378,
        787,
        732,
        629,
        583,
        200,
        3,
        531,
        645,
        635,
        983,
        282,
        703,
        277,
        302,
        913,
        400,
        172,
        604,
        273,
        121,
        2,
        825,
        995,
        678,
        760,
        471,
        278,
        857,
        216,
        16,
        250,
        574,
        108,
        215,
        865,
        515,
        13,
        446,
        946,
        240,
        332,
        99,
        409,
        381,
        501,
        491,
        837,
        591,
        469,
        225,
        850,
        520,
        866,
        669,
        934,
        987,
        795,
        581,
        47,
        720,
        295,
        336,
        562,
        748,
        735,
        777,
        935,
        701,
        982,
        243,
        638,
        94,
        833,
        257,
        387,
        743,
        755,
        131,
        148,
        227,
        607,
        792,
        656,
        123,
        707,
        223,
        986,
        445,
        631,
        136,
        253,
        143,
        816,
        715,
        662,
        239,
        999,
        106,
        830,
        422,
        536,
        254,
        602,
        893,
        11,
        552,
        578,
        272,
        663,
        472,
        283,
        230,
        188,
        827,
        789,
        60,
        315,
        877,
        891,
        523,
        7,
        521,
        164,
        324,
        879,
        849,
        903,
        96,
        518,
        682,
        88,
        105,
        463,
        898,
        292,
        997,
        10,
        863,
        780,
        855,
        65,
        909,
        453,
        219,
        462,
        339,
        771,
        796,
        731,
        504,
        942,
        211,
        924,
        145,
        370,
        547,
        49,
        605,
        104,
        710,
        514,
        709,
        226,
        719,
        256,
        815,
        699,
        846,
        842,
        407,
        988,
        322,
        298,
        519,
        752,
        628,
        363,
        640,
        477,
        800,
        202,
        687,
        976,
        911,
        59,
        677,
        338,
        838,
        393,
        925,
        427,
        818,
        757,
        314,
        527,
        980,
        364,
        594,
        371,
        778,
        118,
        637,
        242,
        546,
        901,
        72,
        340,
        530,
        713,
        804,
        238,
        922,
        124,
        43,
        943,
        906,
        343,
        610,
        673,
        413,
        647,
        457,
        936,
        606,
        375,
        810,
        747,
        502,
        571,
        269,
        61,
        905,
        950,
        970,
        184,
        930,
        34,
        870,
        670,
        139,
        953,
        276,
        75,
        175,
        85,
        430,
        882,
        398,
        15,
        482,
        894,
        968,
        26,
        945,
        426,
        31,
        955,
        116,
        86,
        957,
        352,
        356,
        902,
        704,
        940,
        70,
        661,
        609,
        641,
        380,
        170,
        897,
        812,
        666,
        782,
        241,
        808,
        614,
        51,
        938,
        503,
        657,
        342,
        176,
        217,
        102,
        252,
        300,
        279,
        964,
        769,
        360,
        779,
        440,
        569,
        559,
        937,
        247,
        155,
        767,
        652,
        488,
        299,
        167,
        824,
        956,
        844,
        135,
        119,
        993,
        783,
        480,
        6,
        668,
        597,
        134,
        734,
        869,
        497,
        765,
        91,
        147,
        762,
        293,
        526,
        234,
        617,
        246,
        711,
        756,
        133,
        467,
        708,
        79,
        44,
        318,
        696,
        265,
        781,
        474,
        306,
        620,
        834,
        335,
        784,
        919,
        391,
        618,
        313,
        307,
        636,
        873,
        373,
        198,
        991,
        798,
        632,
        435,
        697,
        45,
        712,
        80,
        301,
        28,
        853,
        385,
        848,
        786,
        616,
        159,
        989,
        912,
        876,
        376,
        157,
        541,
        317,
        802,
        428,
        178,
        702,
        141,
        450,
        481,
        63,
        878,
        76,
        408,
        761,
        700,
        679,
        394,
        724,
        918,
        52,
        251,
        831,
        864,
        255,
        642,
        889,
        586,
        286,
        961,
        750,
        851,
        21,
        836,
        560,
        939,
        860,
        74,
        920,
        528,
        130,
        197,
        835,
        733,
        567,
        267,
        323,
        55,
        584,
        320,
        686,
        25,
        861,
        972,
        12,
        419,
        511,
        554,
        114,
        826,
        749,
        30,
        622,
        353,
        644,
        841,
        883,
        244,
        5,
        347,
        213,
        944,
        84,
        185,
        561,
        529,
        888,
        570,
        22,
        763,
        737,
        862,
        542,
        168,
        402,
        476,
        799,
        683,
        658,
        494,
        619,
        773,
        557,
        396,
        89,
        53,
        633,
        947,
        274,
        220,
        174,
        110,
        801,
        4,
        770,
        95,
        212,
        582,
        452,
        775,
        209,
        46,
        224,
        154,
        464,
        67,
        649,
        412,
        266,
        330,
        858,
        191,
        722,
        389,
        803,
        555,
        738,
        881,
        245,
        262,
        745,
        305,
        949,
        258,
        500,
        698,
        914,
        150,
        64,
        297,
        725,
        483,
        358,
        512,
        874,
        233,
        493,
        568,
        716,
        965,
        268,
        900,
        984,
        29,
        739,
        822,
        509,
        447,
        809,
        907,
        204,
        654,
        548,
        355,
        82,
        288,
        646,
        285,
        832,
        189,
        817,
        690,
        611,
        196,
        162,
        109,
        880,
        333,
        337,
        978,
        39,
        599,
        416,
        348,
        534,
        308,
        205,
        615,
        122,
        556,
        791,
        1,
        372,
        235,
        321,
        431,
        384,
        643,
        579,
        436,
        349,
        369,
        208,
        966,
        328,
        754,
        951,
        590,
        259,
        540,
        960,
        68,
        505,
        510,
        933,
        768,
        451,
        62,
        187,
        24,
        496,
        142,
        759,
        458,
        659,
        751,
        544,
        721,
        399,
        958,
        639,
        137,
        871,
        593,
        368,
        218,
        151,
        32,
        625,
        166,
        886,
        806,
        797,
        87,
        97,
        517,
        438,
        904,
        455,
        429,
        199,
        813,
        753,
        69,
        294,
        9,
        981,
        366,
        513,
        473,
        334,
        859,
        405,
        210,
        974,
        228,
        35,
        54,
        180,
        311,
        794,
        115,
        103,
        948,
        692,
        397,
        990,
        627,
        125,
        589,
        459,
        437,
        537,
        623,
        316,
        550,
        395,
        910,
        129,
        312,
        192,
        486,
        222,
        553,
        442,
        264,
        648,
        729,
        444,
        843,
        664,
        41,
        144,
        714,
        917,
        193,
        580,
        558,
        456,
        852,
        587,
        284,
        538,
        774,
        221,
        969,
        171,
        232,
        249,
        326,
        525,
        420,
        564,
        289,
        319,
        382,
        601,
        468,
        823,
        967,
        113,
        566,
        975,
        132,
        379,
        723,
        971,
        260,
        495,
        23,
        377,
        479,
        535,
        112,
        90,
        820,
        331,
        766,
        237,
        173,
        100,
        434,
        788,
        676,
        675,
        856,
        728,
        183,
        680,
        263,
        718,
        37,
        506,
        785,
        138,
        741,
        424,
        341,
        573,
        490,
        973,
        309,
        186,
        425,
        77,
        8,
        522,
        600,
        287,
        414,
        281,
        630,
        895,
        201,
        181,
        487,
        776,
        117,
        344,
        941,
        231,
        161,
        985,
        839,
        952,
        386,
        432,
        549,
        650,
        439,
        588,
        92,
        805,
        671,
        149,
        111,
        533,
        475,
        595,
        20,
        928,
        401,
        508,
        744,
        585,
        706,
        203,
        18,
        691,
        730,
        404,
        421,
        42,
        361,
        672,
        507,
        959,
        998,
        899,
        485,
        345,
        73,
        327,
        954,
        280,
        169,
        270,
        275,
        411,
        153,
        694,
        448,
        868,
        152,
        689,
        963,
        705,
        466,
        608,
        667,
        454,
        460,
        433,
        310,
        626,
        236,
        127,
        248,
        992,
        532,
        329,
        693,
        304,
        14,
        325,
        854,
        994,
        354,
        351,
        390,
        624,
        229,
        261,
        498,
        190,
        81,
        179,
        892,
        829,
        423,
        417,
        621,
        58,
        695,
        207,
        146,
        923,
        872,
        291,
        470,
        128,
        977,
        418,
        840,
        688,
        613,
        443,
        465,
        915,
        717,
        746,
        885,
        365,
        758,
        921,
        163,
        653,
        101,
        811,
        346,
        926,
        740,
        271,
        685,
        742,
        772,
        932,
        140,
        847,
        887,
        194,
        674,
        867,
        603,
        916,
        195,
        539,
        374,
        665,
        764,
        962,
        449,
        17,
        441,
        50,
        793,
        684,
        655,
        126,
        57,
        660,
        214,
        165,
        158,
        996,
        598,
        415,
        875,
        489,
        357,
        38,
        499,
        383,
        410,
        177,
        543,
        120,
        634,
        819,
        884,
        40,
        484,
        160,
        821,
        726,
        979,
        807,
        403,
        563,
        651,
        736,
        828,
        516,
        572,
        290,
        596,
        156,
        93,
        107,
        27,
        814,
        296,
        890,
        48,
        359,
        388,
        524,
        931,
        478,
        929,
        362,
        406,
        392
    ],
    "Global Optimum": 0,
    "Algorithm": "Genetic algorithm",
    "Parameters": {
        "population": 30,
        "offspring": 30,
        "mutation probability": 0.001,
        "crossover probability": 0.9
    },
    "Fitness": 1382896,
    "Solution": [
        33,
        545,
        66,
        492,
        98,
        790,
        592,
        896,
        367,
        575,
        727,
        612,
        350,
        182,
        78,
        206,
        0,
        927,
        56,
        36,
        19,
        577,
        845,
        551,
        565,
        71,
        461,
        83,
        303,
        681,
        908,
        576,
        378,
        787,
        732,
        629,
        583,
        200,
        3,
        531,
        645,
        635,
        983,
        282,
        703,
        277,
        302,
        913,
        400,
        172,
        604,
        273,
        121,
        2,
        825,
        995,
        678,
        760,
        471,
        278,
        857,
        216,
        16,
        250,
        574,
        108,
        215,
        865,
        515,
        13,
        446,
        946,
        240,
        332,
        99,
        409,
        381,
        501,
        491,
        837,
        591,
        469,
        225,
        850,
        520,
        866,
        669,
        934,
        987,
        795,
        581,
        47,
        720,
        295,
        336,
        562,
        748,
        735,
        777,
        935,
        701,
        982,
        243,
        638,
        94,
        833,
        257,
        387,
        743,
        755,
        131,
        148,
        227,
        607,
        792,
        656,
        123,
        707,
        223,
        986,
        445,
        631,
        136,
        253,
        143,
        816,
        715,
        662,
        239,
        999,
        106,
        830,
        422,
        536,
        254,
        602,
        893,
        11,
        552,
        578,
        272,
        663,
        472,
        283,
        230,
        188,
        827,
        789,
        60,
        315,
        877,
        891,
        523,
        7,
        521,
        164,
        324,
        879,
        849,
        903,
        96,
        518,
        682,
        88,
        105,
        463,
        898,
        292,
        997,
        10,
        863,
        780,
        855,
        65,
        909,
        453,
        219,
        462,
        339,
        771,
        796,
        731,
        504,
        942,
        211,
        924,
        145,
        370,
        547,
        49,
        605,
        104,
        710,
        514,
        709,
        226,
        719,
        256,
        815,
        699,
        846,
        842,
        407,
        988,
        322,
        298,
        519,
        752,
        628,
        363,
        640,
        477,
        800,
        202,
        687,
        976,
        911,
        59,
        677,
        338,
        838,
        393,
        925,
        427,
        818,
        757,
        314,
        527,
        980,
        364,
        594,
        371,
        778,
        118,
        637,
        242,
        546,
        901,
        72,
        340,
        530,
        713,
        804,
        238,
        922,
        124,
        43,
        943,
        906,
        343,
        610,
        673,
        413,
        647,
        457,
        936,
        606,
        375,
        810,
        747,
        502,
        571,
        269,
        61,
        905,
        950,
        970,
        184,
        930,
        34,
        870,
        670,
        139,
        953,
        276,
        75,
        175,
        85,
        430,
        882,
        398,
        15,
        482,
        894,
        968,
        26,
        945,
        426,
        31,
        955,
        116,
        86,
        957,
        352,
        356,
        902,
        704,
        940,
        70,
        661,
        609,
        641,
        380,
        170,
        897,
        812,
        666,
        782,
        241,
        808,
        614,
        51,
        938,
        503,
        657,
        342,
        176,
        217,
        102,
        252,
        300,
        279,
        964,
        769,
        360,
        779,
        440,
        569,
        559,
        937,
        247,
        155,
        767,
        652,
        488,
        299,
        167,
        824,
        956,
        844,
        135,
        119,
        993,
        783,
        480,
        6,
        668,
        597,
        134,
        734,
        869,
        497,
        765,
        91,
        147,
        762,
        293,
        526,
        234,
        617,
        246,
        711,
        756,
        133,
        467,
        708,
        79,
        44,
        318,
        696,
        265,
        781,
        474,
        306,
        620,
        834,
        335,
        784,
        919,
        391,
        618,
        313,
        307,
        636,
        873,
        373,
        198,
        991,
        798,
        632,
        435,
        697,
        45,
        712,
        80,
        301,
        28,
        853,
        385,
        848,
        786,
        616,
        159,
        989,
        912,
        876,
        376,
        157,
        541,
        317,
        802,
        428,
        178,
        702,
        141,
        450,
        481,
        63,
        878,
        76,
        408,
        761,
        700,
        679,
        394,
        724,
        918,
        52,
        251,
        831,
        864,
        255,
        642,
        889,
        586,
        286,
        961,
        750,
        851,
        21,
        836,
        560,
        939,
        860,
        74,
        920,
        528,
        130,
        197,
        835,
        733,
        567,
        267,
        323,
        55,
        584,
        320,
        686,
        25,
        861,
        972,
        12,
        419,
        511,
        554,
        114,
        826,
        749,
        30,
        622,
        353,
        644,
        841,
        883,
        244,
        5,
        347,
        213,
        944,
        84,
        185,
        561,
        529,
        888,
        570,
        22,
        763,
        737,
        862,
        542,
        168,
        402,
        476,
        799,
        683,
        658,
        494,
        619,
        773,
        557,
        396,
        89,
        53,
        633,
        947,
        274,
        220,
        174,
        110,
        801,
        4,
        770,
        95,
        212,
        582,
        452,
        775,
        209,
        46,
        224,
        154,
        464,
        67,
        649,
        412,
        266,
        330,
        858,
        191,
        722,
        389,
        803,
        555,
        738,
        881,
        245,
        262,
        745,
        305,
        949,
        258,
        500,
        698,
        914,
        150,
        64,
        297,
        725,
        483,
        358,
        512,
        874,
        233,
        493,
        568,
        716,
        965,
        268,
        900,
        984,
        29,
        739,
        822,
        509,
        447,
        809,
        907,
        204,
        654,
        548,
        355,
        82,
        288,
        646,
        285,
        832,
        189,
        817,
        690,
        611,
        196,
        162,
        109,
        880,
        333,
        337,
        978,
        39,
        599,
        416,
        348,
        534,
        308,
        205,
        615,
        122,
        556,
        791,
        1,
        372,
        235,
        321,
        431,
        384,
        643,
        579,
        436,
        349,
        369,
        208,
        966,
        328,
        754,
        951,
        590,
        259,
        540,
        960,
        68,
        505,
        510,
        933,
        768,
        451,
        62,
        187,
        24,
        496,
        142,
        759,
        458,
        659,
        751,
        544,
        721,
        399,
        958,
        639,
        137,
        871,
        593,
        368,
        218,
        151,
        32,
        625,
        166,
        886,
        806,
        797,
        87,
        97,
        517,
        438,
        904,
        455,
        429,
        199,
        813,
        753,
        69,
        294,
        9,
        981,
        366,
        513,
        473,
        334,
        859,
        405,
        210,
        974,
        228,
        35,
        54,
        180,
        311,
        794,
        115,
        103,
        948,
        692,
        397,
        990,
        627,
        125,
        589,
        459,
        437,
        537,
        623,
        316,
        550,
        395,
        910,
        129,
        312,
        192,
        486,
        222,
        553,
        442,
        264,
        648,
        729,
        444,
        843,
        664,
        41,
        144,
        714,
        917,
        193,
        580,
        558,
        456,
        852,
        587,
        284,
        538,
        774,
        221,
        969,
        171,
        232,
        249,
        326,
        525,
        420,
        564,
        289,
        319,
        382,
        601,
        468,
        823,
        967,
        113,
        566,
        975,
        132,
        379,
        723,
        971,
        260,
        495,
        23,
        377,
        479,
        535,
        112,
        90,
        820,
        331,
        766,
        237,
        173,
        100,
        434,
        788,
        676,
        675,
        856,
        728,
        183,
        680,
        263,
        718,
        37,
        506,
        785,
        138,
        741,
        424,
        341,
        573,
        490,
        973,
        309,
        186,
        425,
        77,
        8,
        522,
        600,
        287,
        414,
        281,
        630,
        895,
        201,
        181,
        487,
        776,
        117,
        344,
        941,
        231,
        161,
        985,
        839,
        952,
        386,
        432,
        549,
        650,
        439,
        588,
        92,
        805,
        671,
        149,
        111,
        533,
        475,
        595,
        20,
        928,
        401,
        508,
        744,
        585,
        706,
        203,
        18,
        691,
        730,
        404,
        421,
        42,
        361,
        672,
        507,
        959,
        998,
        899,
        485,
        345,
        73,
        327,
        954,
        280,
        169,
        270,
        275,
        411,
        153,
        694,
        448,
        868,
        152,
        689,
        963,
        705,
        466,
        608,
        667,
        454,
        460,
        433,
        310,
        626,
        236,
        127,
        248,
        992,
        532,
        329,
        693,
        304,
        14,
        325,
        854,
        994,
        354,
        351,
        390,
        624,
        229,
        261,
        498,
        190,
        81,
        179,
        892,
        829,
        423,
        417,
        621,
        58,
        695,
        207,
        146,
        923,
        872,
        291,
        470,
        128,
        977,
        418,
        840,
        688,
        613,
        443,
        465,
        915,
        717,
        746,
        885,
        365,
        758,
        921,
        163,
        653,
        101,
        811,
        346,
        926,
        740,
        271,
        685,
        742,
        772,
        932,
        140,
        847,
        887,
        194,
        674,
        867,
        603,
        916,
        195,
        539,
        374,
        665,
        764,
        962,
        449,
        17,
        441,
        50,
        793,
        684,
        655,
        126,
        57,
        660,
        214,
        165,
        158,
        996,
        598,
        415,
        875,
        489,
        357,
        38,
        499,
        383,
        410,
        177,
        543,
        120,
        634,
        819,
        884,
        40,
        484,
        160,
        821,
        726,
        979,
        807,
        403,
        563,
        651,
        736,
        828,
        516,
        572,
        290,
        596,
        156,
        93,
        107,
        27,
        814,
        296,
        890,
        48,
        359,
        388,
        524,
        931,
        478,
        929,
        362,
        406,
        392
    ],
    "Nb of functions evaluations": 50010,
    "Computational time in seconds": 1502.9832873344421,
    "Stopping criterion in evaluations": 50000
}